rcpsp/heur_output_bi_constraints/Log=1/heurj120.txt
encoding rcpsp/j120.sm/j12028_2.sm nv: 2135868 nc: 4550391 enctime: 44.29
encoding rcpsp/j120.sm/j12028_2.sm nv: 402504 nc: 854043 enctime: 5.20
c File: j12028_2.smnaivebi1.wcnf
c timeout
c final solution cost: 90
c CPU time: 66.746266
s UNKNOWN

c File: j12028_2.smbi1.wcnf
c timeout
c final solution cost: 90
c CPU time: 60.678396
s UNKNOWN


rcpsp/heur_output_bi_constraints/Log=1/heurj120.txt
encoding rcpsp/j120.sm/j12028_3.sm nv: 2172105 nc: 4570029 enctime: 42.86
encoding rcpsp/j120.sm/j12028_3.sm nv: 423045 nc: 886917 enctime: 5.47
c File: j12028_3.smnaivebi1.wcnf
c timeout
c final solution cost: 81
c CPU time: 66.300313
s UNKNOWN

c File: j12028_3.smbi1.wcnf
c timeout
c final solution cost: 80
c CPU time: 60.698557
s UNKNOWN


rcpsp/heur_output_bi_constraints/Log=1/heurj120.txt
encoding rcpsp/j120.sm/j12028_4.sm nv: 2159992 nc: 4607681 enctime: 44.66
encoding rcpsp/j120.sm/j12028_4.sm nv: 458673 nc: 974923 enctime: 6.94
c File: j12028_4.smnaivebi1.wcnf
c timeout
c final solution cost: 100
c CPU time: 66.850083
s UNKNOWN

c File: j12028_4.smbi1.wcnf
c timeout
c final solution cost: 100
c CPU time: 60.793606
s UNKNOWN


rcpsp/heur_output_bi_constraints/Log=1/heurj120.txt
encoding rcpsp/j120.sm/j12028_5.sm nv: 2121756 nc: 4466428 enctime: 41.90
encoding rcpsp/j120.sm/j12028_5.sm nv: 411112 nc: 862488 enctime: 5.27
c File: j12028_5.smnaivebi1.wcnf
c timeout
c final solution cost: 78
c CPU time: 66.151699
s UNKNOWN

c File: j12028_5.smbi1.wcnf
c timeout
c final solution cost: 76
c CPU time: 60.680342
s UNKNOWN


rcpsp/heur_output_bi_constraints/Log=1/heurj120.txt
encoding rcpsp/j120.sm/j12028_6.sm nv: 2169112 nc: 4580479 enctime: 44.41
encoding rcpsp/j120.sm/j12028_6.sm nv: 421388 nc: 886679 enctime: 5.63
c File: j12028_6.smnaivebi1.wcnf
c timeout
c final solution cost: 173
c CPU time: 66.745542
s UNKNOWN

c File: j12028_6.smbi1.wcnf
c timeout
c final solution cost: 92
c CPU time: 60.714356
s UNKNOWN


rcpsp/heur_output_bi_constraints/Log=1/heurj120.txt
encoding rcpsp/j120.sm/j12028_7.sm nv: 2357520 nc: 5042092 enctime: 51.47
encoding rcpsp/j120.sm/j12028_7.sm nv: 474848 nc: 1011575 enctime: 6.44
c File: j12028_7.smnaivebi1.wcnf
c timeout
c final solution cost: 591
c CPU time: 68.157844
s UNKNOWN

c File: j12028_7.smbi1.wcnf
c timeout
c final solution cost: 98
c CPU time: 60.843239
s UNKNOWN


rcpsp/heur_output_bi_constraints/Log=1/heurj120.txt
encoding rcpsp/j120.sm/j12028_8.sm nv: 2146709 nc: 4551956 enctime: 46.36
encoding rcpsp/j120.sm/j12028_8.sm nv: 452115 nc: 955308 enctime: 6.20
c File: j12028_8.smnaivebi1.wcnf
c timeout
c final solution cost: 90
c CPU time: 66.945052
s UNKNOWN

c File: j12028_8.smbi1.wcnf
c timeout
c final solution cost: 89
c CPU time: 60.792049
s UNKNOWN


rcpsp/heur_output_bi_constraints/Log=1/heurj120.txt
encoding rcpsp/j120.sm/j12028_9.sm nv: 2163420 nc: 4547120 enctime: 42.78
encoding rcpsp/j120.sm/j12028_9.sm nv: 456960 nc: 957340 enctime: 7.20
c File: j12028_9.smnaivebi1.wcnf
c timeout
c final solution cost: 458
c CPU time: 66.412490
s UNKNOWN

c File: j12028_9.smbi1.wcnf
c timeout
c final solution cost: 82
c CPU time: 60.776637
s UNKNOWN


rcpsp/heur_output_bi_constraints/Log=1/heurj120.txt
encoding rcpsp/j120.sm/j1202_8.sm nv: 701100 nc: 1632208 enctime: 20.67
encoding rcpsp/j120.sm/j1202_8.sm nv: 102600 nc: 235708 enctime: 1.69
c File: j1202_8.smnaivebi1.wcnf
c timeout
c final solution cost: 66
c CPU time: 63.910714
s UNKNOWN

c File: j1202_8.smbi1.wcnf
c timeout
c final solution cost: 64
c CPU time: 60.204794
s UNKNOWN


rcpsp/heur_output_bi_constraints/Log=1/heurj120.txt
encoding rcpsp/j120.sm/j12029_10.sm nv: 2481516 nc: 5189489 enctime: 50.53
encoding rcpsp/j120.sm/j12029_10.sm nv: 391608 nc: 815640 enctime: 5.46
c File: j12029_10.smnaivebi1.wcnf
c timeout
c final solution cost: 68
c CPU time: 66.973979
s UNKNOWN

c File: j12029_10.smbi1.wcnf
c timeout
c final solution cost: 68
c CPU time: 60.635805
s UNKNOWN


rcpsp/heur_output_bi_constraints/Log=1/heurj120.txt
encoding rcpsp/j120.sm/j12029_1.sm nv: 3041346 nc: 6364840 enctime: 64.13
encoding rcpsp/j120.sm/j12029_1.sm nv: 522522 nc: 1089748 enctime: 7.30
c File: j12029_1.smnaivebi1.wcnf
c timeout
c final solution cost: 257
c CPU time: 68.304026
s UNKNOWN

c File: j12029_1.smbi1.wcnf
c timeout
c final solution cost: 70
c CPU time: 60.852846
s UNKNOWN


rcpsp/heur_output_bi_constraints/Log=1/heurj120.txt
encoding rcpsp/j120.sm/j12029_2.sm nv: 3009162 nc: 6284810 enctime: 61.18
encoding rcpsp/j120.sm/j12029_2.sm nv: 481286 nc: 1001448 enctime: 6.62
c File: j12029_2.smnaivebi1.wcnf
c timeout
c final solution cost: 64
c CPU time: 68.156674
s UNKNOWN

c File: j12029_2.smbi1.wcnf
c timeout
c final solution cost: 63
c CPU time: 60.799324
s UNKNOWN


rcpsp/heur_output_bi_constraints/Log=1/heurj120.txt
encoding rcpsp/j120.sm/j12029_3.sm nv: 3089744 nc: 6462837 enctime: 66.78
encoding rcpsp/j120.sm/j12029_3.sm nv: 522464 nc: 1088877 enctime: 7.56
c File: j12029_3.smnaivebi1.wcnf
c timeout
c final solution cost: 183
c CPU time: 68.640916
s UNKNOWN

c File: j12029_3.smbi1.wcnf
c timeout
c final solution cost: 83
c CPU time: 60.854765
s UNKNOWN


rcpsp/heur_output_bi_constraints/Log=1/heurj120.txt
encoding rcpsp/j120.sm/j12029_4.sm nv: 2862099 nc: 5972009 enctime: 56.45
encoding rcpsp/j120.sm/j12029_4.sm nv: 376938 nc: 782825 enctime: 5.35
c File: j12029_4.smnaivebi1.wcnf
c timeout
c final solution cost: 393
c CPU time: 68.442040
s UNKNOWN

c File: j12029_4.smbi1.wcnf
c timeout
c final solution cost: 60
c CPU time: 60.616164
s UNKNOWN


rcpsp/heur_output_bi_constraints/Log=1/heurj120.txt
encoding rcpsp/j120.sm/j12029_5.sm nv: 2843970 nc: 6002601 enctime: 61.19
encoding rcpsp/j120.sm/j12029_5.sm nv: 471978 nc: 992253 enctime: 6.54
c File: j12029_5.smnaivebi1.wcnf
c timeout
c final solution cost: 79
c CPU time: 68.477052
s UNKNOWN

c File: j12029_5.smbi1.wcnf
c timeout
c CPU time: 60.668902
s UNKNOWN


rcpsp/heur_output_bi_constraints/Log=1/heurj120.txt
encoding rcpsp/j120.sm/j12029_6.sm nv: 2470952 nc: 5200743 enctime: 54.44
encoding rcpsp/j120.sm/j12029_6.sm nv: 450296 nc: 944229 enctime: 6.40
c File: j12029_6.smnaivebi1.wcnf
c timeout
c final solution cost: 78
c CPU time: 67.338833
s UNKNOWN

c File: j12029_6.smbi1.wcnf
c timeout
c final solution cost: 77
c CPU time: 60.754870
s UNKNOWN


rcpsp/heur_output_bi_constraints/Log=1/heurj120.txt
encoding rcpsp/j120.sm/j12029_7.sm nv: 2983372 nc: 6226226 enctime: 60.72
encoding rcpsp/j120.sm/j12029_7.sm nv: 439798 nc: 914117 enctime: 6.43
c File: j12029_7.smnaivebi1.wcnf
c timeout
c final solution cost: 74
c CPU time: 68.091762
s UNKNOWN

c File: j12029_7.smbi1.wcnf
c timeout
c final solution cost: 71
c CPU time: 60.704785
s UNKNOWN


rcpsp/heur_output_bi_constraints/Log=1/heurj120.txt
encoding rcpsp/j120.sm/j12029_8.sm nv: 2739390 nc: 5715925 enctime: 55.19
encoding rcpsp/j120.sm/j12029_8.sm nv: 405516 nc: 842597 enctime: 4.18
c File: j12029_8.smnaivebi1.wcnf
c timeout
c final solution cost: 71
c CPU time: 67.530335
s UNKNOWN

c File: j12029_8.smbi1.wcnf
c timeout
c final solution cost: 69
c CPU time: 60.652410
s UNKNOWN


rcpsp/heur_output_bi_constraints/Log=1/heurj120.txt
encoding rcpsp/j120.sm/j12029_9.sm nv: 2539138 nc: 5300244 enctime: 51.74
encoding rcpsp/j120.sm/j12029_9.sm nv: 418404 nc: 870071 enctime: 5.92
c File: j12029_9.smnaivebi1.wcnf
c timeout
c final solution cost: 64
c CPU time: 66.938752
s UNKNOWN

c File: j12029_9.smbi1.wcnf
c timeout
c final solution cost: 64
c CPU time: 60.688064
s UNKNOWN


rcpsp/heur_output_bi_constraints/Log=1/heurj120.txt
encoding rcpsp/j120.sm/j1202_9.sm nv: 693753 nc: 1675580 enctime: 24.01
encoding rcpsp/j120.sm/j1202_9.sm nv: 121329 nc: 289508 enctime: 2.16
c File: j1202_9.smnaivebi1.wcnf
c timeout
c final solution cost: 386
c CPU time: 64.765419
s UNKNOWN

c File: j1202_9.smbi1.wcnf
c timeout
c final solution cost: 70
c CPU time: 60.282260
s UNKNOWN


rcpsp/heur_output_bi_constraints/Log=1/heurj120.txt
encoding rcpsp/j120.sm/j12030_10.sm nv: 3247596 nc: 6731004 enctime: 65.65
encoding rcpsp/j120.sm/j12030_10.sm nv: 445356 nc: 919324 enctime: 4.58
c File: j12030_10.smnaivebi1.wcnf
c timeout
c CPU time: 67.489266
s UNKNOWN

c File: j12030_10.smbi1.wcnf
c timeout
c CPU time: 60.591464
s UNKNOWN


rcpsp/heur_output_bi_constraints/Log=1/heurj120.txt
encoding rcpsp/j120.sm/j12030_1.sm nv: 2926040 nc: 6111699 enctime: 59.39
encoding rcpsp/j120.sm/j12030_1.sm nv: 503880 nc: 1048727 enctime: 6.85
c File: j12030_1.smnaivebi1.wcnf
c timeout
c final solution cost: 67
c CPU time: 68.322366
s UNKNOWN

c File: j12030_1.smbi1.wcnf
c timeout
c final solution cost: 67
c CPU time: 60.831594
s UNKNOWN


rcpsp/heur_output_bi_constraints/Log=1/heurj120.txt
encoding rcpsp/j120.sm/j12030_2.sm nv: 2780364 nc: 5839738 enctime: 59.29
encoding rcpsp/j120.sm/j12030_2.sm nv: 436380 nc: 912634 enctime: 6.41
c File: j12030_2.smnaivebi1.wcnf
c timeout
c final solution cost: 70
c CPU time: 68.076463
s UNKNOWN

c File: j12030_2.smbi1.wcnf
c timeout
c final solution cost: 71
c CPU time: 60.724189
s UNKNOWN


rcpsp/heur_output_bi_constraints/Log=1/heurj120.txt
encoding rcpsp/j120.sm/j12030_3.sm nv: 3128400 nc: 6514433 enctime: 62.92
encoding rcpsp/j120.sm/j12030_3.sm nv: 526140 nc: 1091960 enctime: 7.15
c File: j12030_3.smnaivebi1.wcnf
c timeout
c final solution cost: 302
c CPU time: 68.313940
s UNKNOWN

c File: j12030_3.smbi1.wcnf
c timeout
c final solution cost: 73
c CPU time: 60.885845
s UNKNOWN


rcpsp/heur_output_bi_constraints/Log=1/heurj120.txt
encoding rcpsp/j120.sm/j12030_4.sm nv: 2969890 nc: 6197392 enctime: 62.74
encoding rcpsp/j120.sm/j12030_4.sm nv: 375144 nc: 778986 enctime: 3.88
c File: j12030_4.smnaivebi1.wcnf
c timeout
c final solution cost: 60
c CPU time: 68.091715
s UNKNOWN

c File: j12030_4.smbi1.wcnf
c timeout
c final solution cost: 60
c CPU time: 60.612797
s UNKNOWN


rcpsp/heur_output_bi_constraints/Log=1/heurj120.txt
encoding rcpsp/j120.sm/j12030_5.sm nv: 2667720 nc: 5595738 enctime: 56.17
encoding rcpsp/j120.sm/j12030_5.sm nv: 424410 nc: 886563 enctime: 5.82
c File: j12030_5.smnaivebi1.wcnf
c timeout
c final solution cost: 249
c CPU time: 67.795123
s UNKNOWN

c File: j12030_5.smbi1.wcnf
c timeout
c final solution cost: 75
c CPU time: 60.696023
s UNKNOWN


rcpsp/heur_output_bi_constraints/Log=1/heurj120.txt
encoding rcpsp/j120.sm/j12030_6.sm nv: 3376684 nc: 6970480 enctime: 62.69
encoding rcpsp/j120.sm/j12030_6.sm nv: 458036 nc: 941932 enctime: 6.30
c File: j12030_6.smnaivebi1.wcnf
c timeout
c final solution cost: 56
c CPU time: 68.038345
s UNKNOWN

c File: j12030_6.smbi1.wcnf
c timeout
c final solution cost: 56
c CPU time: 60.680929
s UNKNOWN


rcpsp/heur_output_bi_constraints/Log=1/heurj120.txt
encoding rcpsp/j120.sm/j12030_7.sm nv: 3381754 nc: 7049779 enctime: 63.45
encoding rcpsp/j120.sm/j12030_7.sm nv: 543234 nc: 1128559 enctime: 7.12
c File: j12030_7.smnaivebi1.wcnf
c timeout
c final solution cost: 79
c CPU time: 68.877545
s UNKNOWN

c File: j12030_7.smbi1.wcnf
c timeout
c final solution cost: 78
c CPU time: 60.859716
s UNKNOWN


rcpsp/heur_output_bi_constraints/Log=1/heurj120.txt
encoding rcpsp/j120.sm/j12030_8.sm nv: 4201516 nc: 8668724 enctime: 73.02
encoding rcpsp/j120.sm/j12030_8.sm nv: 500324 nc: 1028108 enctime: 6.72
c File: j12030_8.smnaivebi1.wcnf
c optimal
c final solution cost: 66
c CPU time: 17.028950
s OPTIMUM FOUND

c File: j12030_8.smbi1.wcnf
c optimal
c final solution cost: 66
c CPU time: 1.473872
s OPTIMUM FOUND


rcpsp/heur_output_bi_constraints/Log=1/heurj120.txt
encoding rcpsp/j120.sm/j12030_9.sm nv: 3190956 nc: 6687859 enctime: 61.22
encoding rcpsp/j120.sm/j12030_9.sm nv: 432672 nc: 902623 enctime: 5.64
c File: j12030_9.smnaivebi1.wcnf
c timeout
c final solution cost: 72
c CPU time: 68.389935
s UNKNOWN

c File: j12030_9.smbi1.wcnf
c timeout
c final solution cost: 70
c CPU time: 60.643470
s UNKNOWN


rcpsp/heur_output_bi_constraints/Log=1/heurj120.txt
encoding rcpsp/j120.sm/j1203_10.sm nv: 830417 nc: 1951226 enctime: 24.00
encoding rcpsp/j120.sm/j1203_10.sm nv: 147983 nc: 344186 enctime: 2.23
c File: j1203_10.smnaivebi1.wcnf
c optimal
c final solution cost: 66
c CPU time: 13.288874
s OPTIMUM FOUND

c File: j1203_10.smbi1.wcnf
c optimal
c final solution cost: 66
c CPU time: 1.746556
s OPTIMUM FOUND


rcpsp/heur_output_bi_constraints/Log=1/heurj120.txt
encoding rcpsp/j120.sm/j12031_10.sm nv: 2220288 nc: 4751949 enctime: 44.26
encoding rcpsp/j120.sm/j12031_10.sm nv: 1093624 nc: 2338351 enctime: 16.69
c File: j12031_10.smnaivebi1.wcnf
c timeout
c final solution cost: 272
c CPU time: 67.054093
s UNKNOWN

c File: j12031_10.smbi1.wcnf
c timeout
c final solution cost: 230
c CPU time: 62.421853
s UNKNOWN


rcpsp/heur_output_bi_constraints/Log=1/heurj120.txt
encoding rcpsp/j120.sm/j12031_1.sm nv: 2337480 nc: 4954014 enctime: 45.18
encoding rcpsp/j120.sm/j12031_1.sm nv: 938616 nc: 1986832 enctime: 12.77
c File: j12031_1.smnaivebi1.wcnf
c timeout
c final solution cost: 205
c CPU time: 66.987229
s UNKNOWN

c File: j12031_1.smbi1.wcnf
c timeout
c final solution cost: 201
c CPU time: 61.836495
s UNKNOWN


rcpsp/heur_output_bi_constraints/Log=1/heurj120.txt
encoding rcpsp/j120.sm/j12031_2.sm nv: 2308225 nc: 4882138 enctime: 43.44
encoding rcpsp/j120.sm/j12031_2.sm nv: 992355 nc: 2096548 enctime: 13.20
c File: j12031_2.smnaivebi1.wcnf
c timeout
c final solution cost: 452
c CPU time: 66.686444
s UNKNOWN

c File: j12031_2.smbi1.wcnf
c timeout
c final solution cost: 194
c CPU time: 61.948625
s UNKNOWN


rcpsp/heur_output_bi_constraints/Log=1/heurj120.txt
encoding rcpsp/j120.sm/j12031_3.sm nv: 2503177 nc: 5268062 enctime: 46.71
encoding rcpsp/j120.sm/j12031_3.sm nv: 900509 nc: 1892642 enctime: 10.76
c File: j12031_3.smnaivebi1.wcnf
c timeout
c final solution cost: 175
c CPU time: 66.886622
s UNKNOWN

c File: j12031_3.smbi1.wcnf
c timeout
c final solution cost: 177
c CPU time: 61.637113
s UNKNOWN


rcpsp/heur_output_bi_constraints/Log=1/heurj120.txt
encoding rcpsp/j120.sm/j12031_4.sm nv: 2065206 nc: 4405154 enctime: 40.67
encoding rcpsp/j120.sm/j12031_4.sm nv: 1022892 nc: 2179812 enctime: 15.37
c File: j12031_4.smnaivebi1.wcnf
c timeout
c final solution cost: 249
c CPU time: 66.377669
s UNKNOWN

c File: j12031_4.smbi1.wcnf
c timeout
c final solution cost: 219
c CPU time: 62.221983
s UNKNOWN


rcpsp/heur_output_bi_constraints/Log=1/heurj120.txt
encoding rcpsp/j120.sm/j12031_5.sm nv: 2631683 nc: 5619142 enctime: 52.98
encoding rcpsp/j120.sm/j12031_5.sm nv: 1026098 nc: 2187862 enctime: 13.95
c File: j12031_5.smnaivebi1.wcnf
c timeout
c final solution cost: 282
c CPU time: 68.055142
s UNKNOWN

c File: j12031_5.smbi1.wcnf
c timeout
c final solution cost: 203
c CPU time: 61.976418
s UNKNOWN


rcpsp/heur_output_bi_constraints/Log=1/heurj120.txt
encoding rcpsp/j120.sm/j12031_6.sm nv: 2599740 nc: 5489440 enctime: 47.21
encoding rcpsp/j120.sm/j12031_6.sm nv: 1008384 nc: 2126544 enctime: 13.08
c File: j12031_6.smnaivebi1.wcnf
c timeout
c final solution cost: 508
c CPU time: 67.344218
s UNKNOWN

c File: j12031_6.smbi1.wcnf
c timeout
c final solution cost: 196
c CPU time: 61.882646
s UNKNOWN


rcpsp/heur_output_bi_constraints/Log=1/heurj120.txt
encoding rcpsp/j120.sm/j12031_7.sm nv: 2688014 nc: 5723195 enctime: 50.94
encoding rcpsp/j120.sm/j12031_7.sm nv: 1018936 nc: 2166417 enctime: 13.47
c File: j12031_7.smnaivebi1.wcnf
c timeout
c final solution cost: 209
c CPU time: 67.914027
s UNKNOWN

c File: j12031_7.smbi1.wcnf
c timeout
c final solution cost: 208
c CPU time: 61.940546
s UNKNOWN


rcpsp/heur_output_bi_constraints/Log=1/heurj120.txt
encoding rcpsp/j120.sm/j12031_8.sm nv: 2632019 nc: 5592256 enctime: 49.72
encoding rcpsp/j120.sm/j12031_8.sm nv: 971295 nc: 2060656 enctime: 12.70
c File: j12031_8.smnaivebi1.wcnf
c timeout
c final solution cost: 201
c CPU time: 67.775574
s UNKNOWN

c File: j12031_8.smbi1.wcnf
c timeout
c final solution cost: 199
c CPU time: 61.833082
s UNKNOWN


